h 6 1 0
h -6 5 0
h -5 -6 0
h 6 -15 0
h -74 32 0
h -79 74 0
2710069619085524864 -97 0
7516736710227097732 -98 0
h 79 -1 0
5443942959576596221 -99 0
h -32 100 33 0
h -33 32 0
2775994784820332798 -100 0
h 15 -9 0
h 15 9 0
